
===== New CPLEX run =====
Instance: /home/yorig/tuner/mpils-tests/instances/miplib/easy/lotsize.mps
Config: /scratch/yorig/mpils-results-grid-seconds-5-no-mip-start/easy/16proc/seed-3/4_lotsize_seed-3_20260502_223218/iterated_local_search/run_3_worker_12/ils_config_17546440514620848919.prm
========================

Selected objective sense:  MINIMIZE
Selected objective  name:  R1921
Selected RHS        name:  B
Selected bound      name:  BOUND
Version identifier: 22.1.2.0 | 2024-11-26 | 0edbb82fd
CPXPARAM_Threads                                 8
CPXPARAM_Parallel                                1
CPXPARAM_MIP_Cuts_Cliques                        1
CPXPARAM_MIP_Strategy_SubAlgorithm               1
CPXPARAM_MIP_Strategy_VariableSelect             2
CPXPARAM_MIP_Cuts_Implied                        -1
CPXPARAM_MIP_Limits_GomoryCand                   800
CPXPARAM_MIP_Cuts_Gomory                         -1
CPXPARAM_MIP_Cuts_PathCut                        -1
CPXPARAM_MIP_Cuts_MIRCut                         2
CPXPARAM_MIP_Cuts_Disjunctive                    2
CPXPARAM_Emphasis_MIP                            1
CPXPARAM_MIP_Strategy_BBInterval                 3
CPXPARAM_TimeLimit                               5
CPXPARAM_MIP_Limits_CutsFactor                   1
Tried aggregator 1 time.
MIP Presolve eliminated 595 rows and 0 columns.
MIP Presolve added 1190 rows and 0 columns.
MIP Presolve modified 10 coefficients.
Reduced MIP has 2515 rows, 2985 columns, and 7755 nonzeros.
Reduced MIP has 1195 binaries, 0 generals, 0 SOSs, and 0 indicators.
Presolve time = 0.00 sec. (4.53 ticks)
Probing fixed 0 vars, tightened 5487 bounds.
Probing time = 0.01 sec. (18.38 ticks)
Tried aggregator 2 times.
Detecting symmetries...
MIP Presolve modified 1206 coefficients.
Aggregator did 10 substitutions.
Reduced MIP has 2505 rows, 2975 columns, and 7735 nonzeros.
Reduced MIP has 1195 binaries, 0 generals, 0 SOSs, and 0 indicators.
Presolve time = 0.00 sec. (6.66 ticks)
Probing fixed 0 vars, tightened 2401 bounds.
Probing time = 0.00 sec. (6.41 ticks)
Clique table members: 190.
MIP emphasis: integer feasibility.
MIP search method: dynamic search.
Parallel mode: deterministic, using up to 8 threads.
Root relaxation solution time = 0.01 sec. (7.84 ticks)

        Nodes                                         Cuts/
   Node  Left     Objective  IInf  Best Integer    Best Bound    ItCnt     Gap

      0     0   348385.3466   472                 348385.3466      882         
Detecting symmetries...
      0     2   348385.3466   472                 348385.3466      882         
Elapsed time = 0.08 sec. (138.78 ticks, tree = 0.02 MB, solutions = 0)
    501   450   554875.9318   471                 365003.0044     4725         
   1144   988   816236.6156   437                 365003.0044     9541         
   2021  1781  1221709.9766   402                 365003.0044    15852         
   3121  2965  1473297.4039   349                 365003.0044    29297         
   4415  4092   691697.4170   428                 366720.4389    49799         
   5610  5092  1369379.9645   333                 366720.4389    58012         
   7022  6611  1602053.0662   313                 366720.4389    74793         
   8385  7739  1909370.8850   185                 366720.4389    87157         
   9691  9069  1275092.5466   349                 366720.4389    98409         

Performing restart 1

Repeating presolve.
Tried aggregator 1 time.
MIP Presolve modified 1134 coefficients.
Reduced MIP has 2505 rows, 2975 columns, and 7735 nonzeros.
Reduced MIP has 1195 binaries, 0 generals, 0 SOSs, and 0 indicators.
Presolve time = 0.00 sec. (3.78 ticks)
Tried aggregator 1 time.
MIP Presolve modified 1052 coefficients.
Reduced MIP has 2505 rows, 2975 columns, and 7735 nonzeros.
Reduced MIP has 1195 binaries, 0 generals, 0 SOSs, and 0 indicators.
Presolve time = 0.00 sec. (5.12 ticks)
Represolve time = 0.01 sec. (15.77 ticks)
  13322   116   407595.0550   476                 367791.5115   126605         
Elapsed time = 1.46 sec. (3240.46 ticks, tree = 0.08 MB, solutions = 0)
  15470  2057  1332032.6035   374                 367791.5115   143938         
* 19023  3130      integral     0  6119355.0000   371898.5535   153889   93.92%
  19197  5344  1422623.5822   292  6119355.0000   371898.5535   174158   93.92%
* 19877+ 5618                      1988608.0000   371898.5535            81.30%
* 20515+ 5618                      1943603.0000   371898.5535            80.87%
* 21222+ 5618                      1829056.0000   371898.5535            79.67%
* 21648+ 5618                      1818386.0000   371898.5535            79.55%
  21869  7967   707301.4794   416  1818386.0000   371898.5535   200728   79.55%
* 22075+ 5618                      1805520.0000   371898.5535            79.40%
* 22470+ 5618                      1800137.0000   371898.5535            79.34%
* 23112+ 5618                      1786557.0000   371898.5535            79.18%
* 24104+ 5618                      1763446.0000   371898.5535            78.91%
  24433 10508  1168457.0166   361  1763446.0000   371898.5535   222743   78.91%
* 25010+ 5618                      1759811.0000   371898.5535            78.87%
* 26276+ 5618                      1758723.0000   371898.5535            78.85%
* 26532+ 5618                      1719075.0000   371898.5535            78.37%
* 26650+ 5618                      1702058.0000   371898.5535            78.15%
* 26669+ 5618                      1696602.0000   371898.5535            78.08%
* 26840+ 5618                      1673145.0000   371898.5535            77.77%
  26851 12909  1464857.3003   266  1673145.0000   371898.5535   244798   77.77%
* 26866+ 5618                      1652444.0000   371898.5535            77.49%
* 26914+ 5618                      1648445.0000   371898.5535            77.44%
* 27050+ 5618                      1608256.0000   371898.5535            76.88%
* 27115+ 5618                      1605330.0000   371898.5535            76.83%
* 27139+ 5618                      1604701.0000   371898.5535            76.82%
* 27160+ 5618                      1604074.0000   371898.5535            76.82%
* 27172+ 5618                      1600210.0000   371898.5535            76.76%
* 27175+ 5618                      1599684.0000   371898.5535            76.75%

Clique cuts applied:  0
Mixed integer rounding cuts applied:  0
Disjunctive cuts applied:  0
Cone linearizations applied:  0

Root node processing (before b&c):
  Real time             =    0.08 sec. (139.11 ticks)
Parallel b&c, 8 threads:
  Real time             =    4.92 sec. (8520.88 ticks)
  Sync time (average)   =    0.92 sec.
  Wait time (average)   =    0.00 sec.
                          ------------
Total (root+branch&cut) =    5.01 sec. (8659.99 ticks)
Gap: 76.75%
Upper bound: 1.59968e+06
Lower bound: 371899
End of CPLEX run. Time: 5.00647 seconds

===== New CPLEX run =====
Instance: /home/yorig/tuner/mpils-tests/instances/miplib/easy/lotsize.mps
Config: /scratch/yorig/mpils-results-grid-seconds-5-no-mip-start/easy/16proc/seed-3/4_lotsize_seed-3_20260502_223218/iterated_local_search/run_3_worker_12/ils_config_12461120018550940984.prm
========================

Selected objective sense:  MINIMIZE
Selected objective  name:  R1921
Selected RHS        name:  B
Selected bound      name:  BOUND
Version identifier: 22.1.2.0 | 2024-11-26 | 0edbb82fd
CPXPARAM_Threads                                 8
CPXPARAM_Parallel                                1
CPXPARAM_MIP_Cuts_Cliques                        1
CPXPARAM_MIP_Strategy_SubAlgorithm               1
CPXPARAM_MIP_Strategy_VariableSelect             2
CPXPARAM_MIP_Cuts_Implied                        -1
CPXPARAM_MIP_Limits_GomoryCand                   800
CPXPARAM_MIP_Cuts_Gomory                         -1
CPXPARAM_MIP_Cuts_PathCut                        -1
CPXPARAM_MIP_Cuts_MIRCut                         2
CPXPARAM_MIP_Cuts_Disjunctive                    2
CPXPARAM_Emphasis_MIP                            3
CPXPARAM_MIP_Strategy_BBInterval                 3
CPXPARAM_TimeLimit                               5
CPXPARAM_MIP_Limits_CutsFactor                   1
Tried aggregator 1 time.
MIP Presolve eliminated 595 rows and 0 columns.
MIP Presolve added 1190 rows and 0 columns.
MIP Presolve modified 10 coefficients.
Reduced MIP has 2515 rows, 2985 columns, and 7755 nonzeros.
Reduced MIP has 1195 binaries, 0 generals, 0 SOSs, and 0 indicators.
Presolve time = 0.00 sec. (4.53 ticks)
Probing fixed 0 vars, tightened 5487 bounds.
Probing time = 0.01 sec. (18.38 ticks)
Tried aggregator 2 times.
Detecting symmetries...
MIP Presolve modified 1206 coefficients.
Aggregator did 10 substitutions.
Reduced MIP has 2505 rows, 2975 columns, and 7735 nonzeros.
Reduced MIP has 1195 binaries, 0 generals, 0 SOSs, and 0 indicators.
Presolve time = 0.00 sec. (6.66 ticks)
Probing fixed 0 vars, tightened 2401 bounds.
Probing time = 0.00 sec. (6.41 ticks)
Clique table members: 160.
MIP emphasis: best bound.
MIP search method: dynamic search.
Parallel mode: deterministic, using up to 8 threads.
Root relaxation solution time = 0.01 sec. (7.84 ticks)

        Nodes                                         Cuts/
   Node  Left     Objective  IInf  Best Integer    Best Bound    ItCnt     Gap

      0     0   348385.3466   472                 348385.3466      882         
*     0+    0                       1.30443e+07   348385.3466            97.33%
*     0+    0                       1.08875e+07   348385.3466            96.80%
*     0+    0                      8692065.0000   348385.3466            95.99%
Detecting symmetries...
      0     2   348385.3466   472  8692065.0000   348385.3466      882   95.99%
Elapsed time = 0.39 sec. (848.75 ticks, tree = 0.02 MB, solutions = 3)
*     5+    2                      7250817.0000   358070.4927            95.06%
*    11+    5                      7215817.0000   358682.4543            95.03%
*    13+    6                      6206451.0000   358682.4543            94.22%
     13     8   373612.7706   474  6206451.0000   358682.4543      967   94.22%
    184    95   389405.7667   471  6206451.0000   378287.9911     1864   93.90%
    710   635   398315.2780   468  6206451.0000   391574.8275     7213   93.69%
   1327  1059   419384.4726   477  6206451.0000   396452.3722    11280   93.61%

Performing restart 1

Repeating presolve.
Tried aggregator 1 time.
MIP Presolve modified 889 coefficients.
Reduced MIP has 2505 rows, 2975 columns, and 7735 nonzeros.
Reduced MIP has 1195 binaries, 0 generals, 0 SOSs, and 0 indicators.
Presolve time = 0.00 sec. (3.77 ticks)
Tried aggregator 1 time.
MIP Presolve modified 1054 coefficients.
Reduced MIP has 2505 rows, 2975 columns, and 7735 nonzeros.
Reduced MIP has 1195 binaries, 0 generals, 0 SOSs, and 0 indicators.
Presolve time = 0.00 sec. (5.12 ticks)
Represolve time = 0.01 sec. (17.68 ticks)
*  1822+    0                      4747132.0000   399764.9243            91.58%
*  1822+    0                      4162677.0000   399764.9243            90.40%
   1822     0  -1.00000e+75     0  4162677.0000   399764.9243    20206   90.40%
   1822     2   348385.3466   473  4162677.0000   399764.9243    20206   90.40%
*  1824+    1                      4089009.0000   399764.9243            90.22%
*  1824+    1                      4088837.0000   399764.9243            90.22%
*  1831+    4                      4058052.0000   399764.9243            90.15%
*  1836+    7                      4007266.0000   399764.9243            90.02%
   1838    11   369891.7857   474  4007266.0000   399764.9243    20330   90.02%
   1889    48   384736.1369   479  4007266.0000   399764.9243    20700   90.02%
   2296   436   393729.9665   478  4007266.0000   399764.9243    24217   90.02%
   2904   827   400440.6297   478  4007266.0000   399764.9243    27843   90.02%
   5838  3660   424034.1904   472  4007266.0000   406082.5469    53889   89.87%
Elapsed time = 1.69 sec. (4042.20 ticks, tree = 4.32 MB, solutions = 16)
   9335  7159   416114.5635   475  4007266.0000   412710.2989    86434   89.70%
*  9870+ 7766                      3085216.0000   413358.3700            86.60%
  12695 10483   418979.4396   472  3085216.0000   416139.6099   116483   86.51%
  16167 14023   420587.4717   472  3085216.0000   418353.4449   148339   86.44%
* 17713+14929                      3012264.0000   419108.6656            86.09%
  19684 17348   422812.4292   475  3012264.0000   419990.9592   178064   86.06%
  23135 20343   424841.5224   477  3012264.0000   421547.1333   204019   86.01%
* 25822+23278                      2931656.0000   422513.1917            85.59%
  26575 24132   425325.0976   471  2931656.0000   422797.9752   236177   85.58%
* 30052+27291                      2641781.0000   423837.9005            83.96%
* 30065+27291                      2523831.0000   423837.9005            83.21%
  30065 27123   426956.8231   474  2523831.0000   423837.9005   261791   83.21%
* 30079+27291                      2508061.0000   423837.9005            83.10%
* 30081+27565                      2506959.0000   423894.8777            83.09%
* 30090+27291                      2500968.0000   423894.8777            83.05%
* 30103+27657                      2418163.0000   423933.6339            82.47%
* 30140+27657                      2417851.0000   423933.6339            82.47%
* 30156+27657                      2417251.0000   423933.6339            82.46%
* 30470+28343                      2386374.0000   424148.3301            82.23%
* 30474+28206                      2326175.0000   424148.3301            81.77%
* 30489+28343                      2209044.0000   424148.3301            80.80%
* 30497+28206                      2150851.0000   424148.3301            80.28%
* 30510+28206                      2149823.0000   424148.3301            80.27%
* 30522+28206                      2148282.0000   424148.3301            80.26%
* 30994+28174                      2137456.0000   424271.4596            80.15%
* 31053+28174                      2131808.0000   424336.5955            80.09%
* 31223+28479                      2068919.0000   424439.3285            79.48%
* 31250+28479                      1983715.0000   424439.3285            78.60%
* 31271+28479                      1982665.0000   424439.3285            78.59%
* 31280+28479                      1982299.0000   424439.3285            78.59%
* 31346+28606                      1982280.0000   424439.3285            78.59%
* 31568+28706                      1971895.0000   424617.3363            78.47%
* 31679+28706                      1891268.0000   424617.3363            77.55%
* 32031+29206                      1870640.0000   424707.2664            77.30%

Clique cuts applied:  0
Mixed integer rounding cuts applied:  0
Disjunctive cuts applied:  0
Cone linearizations applied:  0

Root node processing (before b&c):
  Real time             =    0.38 sec. (849.73 ticks)
Parallel b&c, 8 threads:
  Real time             =    4.62 sec. (10815.00 ticks)
  Sync time (average)   =    0.40 sec.
  Wait time (average)   =    0.00 sec.
                          ------------
Total (root+branch&cut) =    5.00 sec. (11664.72 ticks)
Gap: 77.28%
Upper bound: 1.87064e+06
Lower bound: 425016
End of CPLEX run. Time: 5.00511 seconds

===== New CPLEX run =====
Instance: /home/yorig/tuner/mpils-tests/instances/miplib/easy/lotsize.mps
Config: /scratch/yorig/mpils-results-grid-seconds-5-no-mip-start/easy/16proc/seed-3/4_lotsize_seed-3_20260502_223218/iterated_local_search/run_3_worker_12/ils_config_9918213452046696320.prm
========================

Selected objective sense:  MINIMIZE
Selected objective  name:  R1921
Selected RHS        name:  B
Selected bound      name:  BOUND
Version identifier: 22.1.2.0 | 2024-11-26 | 0edbb82fd
CPXPARAM_Threads                                 8
CPXPARAM_Parallel                                1
CPXPARAM_MIP_Cuts_Cliques                        1
CPXPARAM_MIP_Strategy_SubAlgorithm               1
CPXPARAM_MIP_Strategy_VariableSelect             2
CPXPARAM_MIP_Cuts_Implied                        -1
CPXPARAM_MIP_Limits_GomoryCand                   800
CPXPARAM_MIP_Cuts_Gomory                         -1
CPXPARAM_MIP_Cuts_PathCut                        -1
CPXPARAM_MIP_Cuts_MIRCut                         2
CPXPARAM_MIP_Cuts_Disjunctive                    2
CPXPARAM_MIP_Strategy_BBInterval                 3
CPXPARAM_TimeLimit                               5
CPXPARAM_MIP_Limits_CutsFactor                   1
Tried aggregator 1 time.
MIP Presolve eliminated 595 rows and 0 columns.
MIP Presolve added 1190 rows and 0 columns.
MIP Presolve modified 10 coefficients.
Reduced MIP has 2515 rows, 2985 columns, and 7755 nonzeros.
Reduced MIP has 1195 binaries, 0 generals, 0 SOSs, and 0 indicators.
Presolve time = 0.00 sec. (4.53 ticks)
Probing fixed 0 vars, tightened 5487 bounds.
Probing time = 0.01 sec. (18.38 ticks)
Tried aggregator 2 times.
Detecting symmetries...
MIP Presolve modified 1206 coefficients.
Aggregator did 10 substitutions.
Reduced MIP has 2505 rows, 2975 columns, and 7735 nonzeros.
Reduced MIP has 1195 binaries, 0 generals, 0 SOSs, and 0 indicators.
Presolve time = 0.00 sec. (6.66 ticks)
Probing fixed 0 vars, tightened 2401 bounds.
Probing time = 0.00 sec. (6.41 ticks)
Clique table members: 190.
MIP emphasis: balance optimality and feasibility.
MIP search method: dynamic search.
Parallel mode: deterministic, using up to 8 threads.
Root relaxation solution time = 0.01 sec. (7.84 ticks)

        Nodes                                         Cuts/
   Node  Left     Objective  IInf  Best Integer    Best Bound    ItCnt     Gap

      0     0   348385.3466   472                 348385.3466      882         
*     0+    0                       1.41872e+07   348385.3466            97.54%
*     0+    0                       1.04207e+07   348385.3466            96.66%
*     0+    0                      8230245.0000   348385.3466            95.77%
Detecting symmetries...
      0     2   348385.3466   472  8230245.0000   348385.3466      882   95.77%
Elapsed time = 0.41 sec. (901.16 ticks, tree = 0.02 MB, solutions = 3)
*    16+    3                      6955022.0000   358682.4543            94.84%
*    27+    4                      6519369.0000   364263.3871            94.41%
    404   327   507235.9613   471  6519369.0000   365845.7869     3812   94.39%
    921   795   840449.1695   443  6519369.0000   365845.7869     7867   94.39%
   1556  1472  1068915.4089   424  6519369.0000   365845.7869    13492   94.39%

Performing restart 1

Repeating presolve.
Tried aggregator 1 time.
MIP Presolve modified 1134 coefficients.
Reduced MIP has 2505 rows, 2975 columns, and 7735 nonzeros.
Reduced MIP has 1195 binaries, 0 generals, 0 SOSs, and 0 indicators.
Presolve time = 0.00 sec. (3.78 ticks)
Tried aggregator 1 time.
MIP Presolve modified 1052 coefficients.
Reduced MIP has 2505 rows, 2975 columns, and 7735 nonzeros.
Reduced MIP has 1195 binaries, 0 generals, 0 SOSs, and 0 indicators.
Presolve time = 0.00 sec. (5.12 ticks)
Represolve time = 0.01 sec. (17.34 ticks)
*  1705+    0                      4960377.0000   365845.7869            92.62%
   1705     0  -1.00000e+75     0  4960377.0000   365845.7869    16338   92.62%
   1705     2   348385.3466   475  4960377.0000   365845.7869    16338   92.62%
*  1713+    1                      4626825.0000   365845.7869            92.09%
*  1720+    3                      4540348.0000   365845.7869            91.94%
*  1724+    4                      4420027.0000   365845.7869            91.72%
*  1734+    6                      4369221.0000   365845.7869            91.63%
   1846   122   397708.0061   479  4369221.0000   365845.7869    17395   91.63%
   2059   269   518801.6866   465  4369221.0000   365845.7869    18688   91.63%
   2548   721   713625.3631   455  4369221.0000   365845.7869    22887   91.63%
   3104  1278   910524.8977   422  4369221.0000   365845.7869    27825   91.63%
   3739  1912  1165014.7413   398  4369221.0000   365845.7869    33162   91.63%
   6735  4474  1192296.5143   387  4369221.0000   370460.6813    59927   91.52%
Elapsed time = 1.90 sec. (4031.31 ticks, tree = 6.38 MB, solutions = 15)
  11352  8701   473055.7453   473  4369221.0000   377953.4085    98379   91.35%
  15875 13178  1033879.8366   407  4369221.0000   380992.9724   152537   91.28%
* 17564+14833                      4327827.0000   381354.9885            91.19%
* 17632+14752                      3794437.0000   381354.9885            89.95%
* 17663+15139                      3570260.0000   381354.9885            89.32%
* 18123+15509                      3431614.0000   381559.2490            88.88%
  20110 17446   914356.5840   417  3431614.0000   381798.4928   196476   88.87%
  25019 21875   630566.3065   460  3431614.0000   383318.3259   245121   88.83%
  29311 26309   960503.6942   418  3431614.0000   384180.1223   296125   88.80%
* 32817+28786                      3138302.0000   384578.3083            87.75%
* 32834+28786                      2897135.0000   384578.3083            86.73%
* 32850+28786                      2766159.0000   384578.3083            86.10%
* 32861+29789                      2698672.0000   384578.3083            85.75%
* 32908+29323                      2697666.0000   384578.3083            85.74%
* 32995+29515                      2639222.0000   384578.3083            85.43%
* 33023+29515                      2629269.0000   384578.3083            85.37%
* 33040+29515                      2627726.0000   384578.3083            85.36%
* 33270+30416                      2599970.0000   384607.8248            85.21%
* 33289+30416                      2559772.0000   384607.8248            84.97%
* 33299+30416                      2556207.0000   384607.8248            84.95%
* 33612+30220                      2509450.0000   384607.8248            84.67%
* 33639+30316                      2311027.0000   384607.8248            83.36%
* 33685+30316                      2223292.0000   384607.8248            82.70%
* 33699+30316                      2190631.0000   384607.8248            82.44%
  33700 30318  1082299.6520   413  2190631.0000   384607.8248   338112   82.44%
* 33765+31357                      2190157.0000   384607.8248            82.44%
* 33768+31357                      2185609.0000   384607.8248            82.40%
* 33998+31256                      2138290.0000   384607.8248            82.01%
* 34003+31256                      2137924.0000   384607.8248            82.01%
* 34030+31356                      2135822.0000   384607.8248            81.99%
* 34032+31356                      2112015.0000   384607.8248            81.79%
* 34033+31356                      2111311.0000   384607.8248            81.78%
* 34090+31356                      2076039.0000   384607.8248            81.47%
* 34090+31356                      2042755.0000   384607.8248            81.17%

Clique cuts applied:  0
Mixed integer rounding cuts applied:  0
Disjunctive cuts applied:  0
Cone linearizations applied:  0

Root node processing (before b&c):
  Real time             =    0.40 sec. (901.73 ticks)
Parallel b&c, 8 threads:
  Real time             =    4.60 sec. (9269.61 ticks)
  Sync time (average)   =    0.66 sec.
  Wait time (average)   =    0.00 sec.
                          ------------
Total (root+branch&cut) =    5.00 sec. (10171.34 ticks)
Gap: 81.16%
Upper bound: 2.04275e+06
Lower bound: 384771
End of CPLEX run. Time: 5.00567 seconds

===== New CPLEX run =====
Instance: /home/yorig/tuner/mpils-tests/instances/miplib/easy/lotsize.mps
Config: /scratch/yorig/mpils-results-grid-seconds-5-no-mip-start/easy/16proc/seed-3/4_lotsize_seed-3_20260502_223218/iterated_local_search/run_3_worker_12/ils_config_7268370746037977016.prm
========================

Selected objective sense:  MINIMIZE
Selected objective  name:  R1921
Selected RHS        name:  B
Selected bound      name:  BOUND
Version identifier: 22.1.2.0 | 2024-11-26 | 0edbb82fd
CPXPARAM_Threads                                 8
CPXPARAM_Parallel                                1
CPXPARAM_MIP_Cuts_Cliques                        1
CPXPARAM_MIP_Strategy_SubAlgorithm               1
CPXPARAM_MIP_Strategy_VariableSelect             2
CPXPARAM_MIP_Cuts_FlowCovers                     -1
CPXPARAM_MIP_Cuts_Implied                        -1
CPXPARAM_MIP_Limits_GomoryCand                   800
CPXPARAM_MIP_Cuts_Gomory                         -1
CPXPARAM_MIP_Cuts_PathCut                        -1
CPXPARAM_MIP_Cuts_MIRCut                         2
CPXPARAM_MIP_Cuts_Disjunctive                    2
CPXPARAM_Emphasis_MIP                            1
CPXPARAM_MIP_Strategy_BBInterval                 3
CPXPARAM_TimeLimit                               5
CPXPARAM_MIP_Limits_CutsFactor                   1
Tried aggregator 1 time.
MIP Presolve eliminated 595 rows and 0 columns.
MIP Presolve added 1190 rows and 0 columns.
MIP Presolve modified 10 coefficients.
Reduced MIP has 2515 rows, 2985 columns, and 7755 nonzeros.
Reduced MIP has 1195 binaries, 0 generals, 0 SOSs, and 0 indicators.
Presolve time = 0.00 sec. (4.53 ticks)
Probing fixed 0 vars, tightened 5487 bounds.
Probing time = 0.01 sec. (18.38 ticks)
Tried aggregator 2 times.
Detecting symmetries...
MIP Presolve modified 1206 coefficients.
Aggregator did 10 substitutions.
Reduced MIP has 2505 rows, 2975 columns, and 7735 nonzeros.
Reduced MIP has 1195 binaries, 0 generals, 0 SOSs, and 0 indicators.
Presolve time = 0.00 sec. (6.66 ticks)
Probing fixed 0 vars, tightened 2401 bounds.
Probing time = 0.00 sec. (6.41 ticks)
Clique table members: 190.
MIP emphasis: integer feasibility.
MIP search method: dynamic search.
Parallel mode: deterministic, using up to 8 threads.
Root relaxation solution time = 0.01 sec. (7.84 ticks)

        Nodes                                         Cuts/
   Node  Left     Objective  IInf  Best Integer    Best Bound    ItCnt     Gap

      0     0   348385.3466   472                 348385.3466      882         
Detecting symmetries...
      0     2   348385.3466   472                 348385.3466      882         
Elapsed time = 0.09 sec. (138.78 ticks, tree = 0.02 MB, solutions = 0)
    501   450   554875.9318   471                 365003.0044     4725         
   1144   988   816236.6156   437                 365003.0044     9541         
   2021  1781  1221709.9766   402                 365003.0044    15852         
   3121  2965  1473297.4039   349                 365003.0044    29297         
   4415  4092   691697.4170   428                 366720.4389    49799         
   5610  5092  1369379.9645   333                 366720.4389    58012         
   7022  6611  1602053.0662   313                 366720.4389    74793         
   8385  7739  1909370.8850   185                 366720.4389    87157         
   9691  9069  1275092.5466   349                 366720.4389    98409         

Performing restart 1

Repeating presolve.
Tried aggregator 1 time.
MIP Presolve modified 1134 coefficients.
Reduced MIP has 2505 rows, 2975 columns, and 7735 nonzeros.
Reduced MIP has 1195 binaries, 0 generals, 0 SOSs, and 0 indicators.
Presolve time = 0.00 sec. (3.78 ticks)
Tried aggregator 1 time.
MIP Presolve modified 1052 coefficients.
Reduced MIP has 2505 rows, 2975 columns, and 7735 nonzeros.
Reduced MIP has 1195 binaries, 0 generals, 0 SOSs, and 0 indicators.
Presolve time = 0.00 sec. (5.12 ticks)
Represolve time = 0.01 sec. (15.77 ticks)
  13322   116   407595.0550   476                 367791.5115   126605         
Elapsed time = 1.46 sec. (3240.46 ticks, tree = 0.08 MB, solutions = 0)
  15470  2057  1332032.6035   374                 367791.5115   143938         
* 19023  3130      integral     0  6119355.0000   371898.5535   153889   93.92%
  19197  5344  1422623.5822   292  6119355.0000   371898.5535   174158   93.92%
* 19877+ 5618                      1988608.0000   371898.5535            81.30%
* 20515+ 5618                      1943603.0000   371898.5535            80.87%
* 21222+ 5618                      1829056.0000   371898.5535            79.67%
* 21648+ 5618                      1818386.0000   371898.5535            79.55%
  21869  7967   707301.4794   416  1818386.0000   371898.5535   200728   79.55%
* 22075+ 5618                      1805520.0000   371898.5535            79.40%
* 22470+ 5618                      1800137.0000   371898.5535            79.34%
* 23112+ 5618                      1786557.0000   371898.5535            79.18%
* 24104+ 5618                      1763446.0000   371898.5535            78.91%
  24433 10508  1168457.0166   361  1763446.0000   371898.5535   222743   78.91%
* 25010+ 5618                      1759811.0000   371898.5535            78.87%
* 26276+ 5618                      1758723.0000   371898.5535            78.85%
* 26532+ 5618                      1719075.0000   371898.5535            78.37%
* 26650+ 5618                      1702058.0000   371898.5535            78.15%
* 26669+ 5618                      1696602.0000   371898.5535            78.08%
* 26840+ 5618                      1673145.0000   371898.5535            77.77%
  26851 12909  1464857.3003   266  1673145.0000   371898.5535   244798   77.77%
* 26866+ 5618                      1652444.0000   371898.5535            77.49%
* 26914+ 5618                      1648445.0000   371898.5535            77.44%
* 27050+ 5618                      1608256.0000   371898.5535            76.88%
* 27115+ 5618                      1605330.0000   371898.5535            76.83%
* 27139+ 5618                      1604701.0000   371898.5535            76.82%
* 27160+ 5618                      1604074.0000   371898.5535            76.82%
* 27172+ 5618                      1600210.0000   371898.5535            76.76%
* 27175+ 5618                      1599684.0000   371898.5535            76.75%

Clique cuts applied:  0
Mixed integer rounding cuts applied:  0
Disjunctive cuts applied:  0
Cone linearizations applied:  0

Root node processing (before b&c):
  Real time             =    0.09 sec. (139.07 ticks)
Parallel b&c, 8 threads:
  Real time             =    4.92 sec. (8495.57 ticks)
  Sync time (average)   =    0.92 sec.
  Wait time (average)   =    0.00 sec.
                          ------------
Total (root+branch&cut) =    5.01 sec. (8634.65 ticks)
Gap: 76.75%
Upper bound: 1.59968e+06
Lower bound: 371899
End of CPLEX run. Time: 5.00637 seconds

===== New CPLEX run =====
Instance: /home/yorig/tuner/mpils-tests/instances/miplib/easy/lotsize.mps
Config: /scratch/yorig/mpils-results-grid-seconds-5-no-mip-start/easy/16proc/seed-3/4_lotsize_seed-3_20260502_223218/iterated_local_search/run_3_worker_12/ils_config_7225790482453643784.prm
========================

Selected objective sense:  MINIMIZE
Selected objective  name:  R1921
Selected RHS        name:  B
Selected bound      name:  BOUND
Version identifier: 22.1.2.0 | 2024-11-26 | 0edbb82fd
CPXPARAM_Threads                                 8
CPXPARAM_Parallel                                1
CPXPARAM_MIP_Cuts_Cliques                        1
CPXPARAM_MIP_Strategy_SubAlgorithm               1
CPXPARAM_MIP_Strategy_VariableSelect             -1
CPXPARAM_MIP_Cuts_Implied                        -1
CPXPARAM_MIP_Limits_GomoryCand                   800
CPXPARAM_MIP_Cuts_Gomory                         -1
CPXPARAM_MIP_Cuts_PathCut                        -1
CPXPARAM_MIP_Cuts_MIRCut                         2
CPXPARAM_MIP_Cuts_Disjunctive                    2
CPXPARAM_Emphasis_MIP                            1
CPXPARAM_MIP_Strategy_BBInterval                 3
CPXPARAM_TimeLimit                               5
CPXPARAM_MIP_Limits_CutsFactor                   1
Tried aggregator 1 time.
MIP Presolve eliminated 595 rows and 0 columns.
MIP Presolve added 1190 rows and 0 columns.
MIP Presolve modified 10 coefficients.
Reduced MIP has 2515 rows, 2985 columns, and 7755 nonzeros.
Reduced MIP has 1195 binaries, 0 generals, 0 SOSs, and 0 indicators.
Presolve time = 0.00 sec. (4.53 ticks)
Probing fixed 0 vars, tightened 5487 bounds.
Probing time = 0.01 sec. (18.38 ticks)
Tried aggregator 2 times.
Detecting symmetries...
MIP Presolve modified 1206 coefficients.
Aggregator did 10 substitutions.
Reduced MIP has 2505 rows, 2975 columns, and 7735 nonzeros.
Reduced MIP has 1195 binaries, 0 generals, 0 SOSs, and 0 indicators.
Presolve time = 0.00 sec. (6.66 ticks)
Probing fixed 0 vars, tightened 2401 bounds.
Probing time = 0.00 sec. (6.41 ticks)
Clique table members: 190.
MIP emphasis: integer feasibility.
MIP search method: dynamic search.
Parallel mode: deterministic, using up to 8 threads.
Root relaxation solution time = 0.01 sec. (7.84 ticks)

        Nodes                                         Cuts/
   Node  Left     Objective  IInf  Best Integer    Best Bound    ItCnt     Gap

      0     0   348385.3466   472                 348385.3466      882         
Detecting symmetries...
      0     2   348385.3466   472                 348385.3466      882         
Elapsed time = 0.07 sec. (87.01 ticks, tree = 0.02 MB, solutions = 0)
    930   782   352570.4372   462                 348502.5445     4006         
   2229  1884    infeasible                       348502.5445    10758         
   3263  2824   424406.5416   403                 348502.5445    20705         

Performing restart 1

Repeating presolve.
Tried aggregator 1 time.
MIP Presolve modified 1134 coefficients.
Reduced MIP has 2505 rows, 2975 columns, and 7735 nonzeros.
Reduced MIP has 1195 binaries, 0 generals, 0 SOSs, and 0 indicators.
Presolve time = 0.00 sec. (3.78 ticks)
Tried aggregator 1 time.
MIP Presolve modified 1052 coefficients.
Reduced MIP has 2505 rows, 2975 columns, and 7735 nonzeros.
Reduced MIP has 1195 binaries, 0 generals, 0 SOSs, and 0 indicators.
Presolve time = 0.00 sec. (5.12 ticks)
Represolve time = 0.01 sec. (15.74 ticks)
   3962   548   379998.4582   439                 348502.5445    25034         
   4759  1353   892281.9850   369                 348502.5445    33063         
   5647  2005   569980.3591   362                 348502.5445    40950         
   6334  2729   370587.7629   458                 348502.5445    49246         
   7498  3770   354574.3025   456                 348502.5445    60870         
   8536  4855   382467.9754   453                 348502.5445    71883         
*  9803  2992      integral     0  5851210.0000   348502.5445    51853   94.04%
*  9937+ 5968                      4127678.0000   348502.5445            91.56%
*  9953+ 5968                      3918611.0000   348502.5445            91.11%
* 10038+ 5968                      3002691.0000   348502.5445            88.39%
* 10071+ 5968                      2983455.0000   348502.5445            88.32%
* 10085+ 5968                      2982569.0000   348502.5445            88.32%
* 10168+ 5968                      2824887.0000   348502.5445            87.66%
* 10337+ 5968                      2525865.0000   348502.5445            86.20%
* 10453+ 5968                      2393769.0000   348502.5445            85.44%
* 10591+ 5968                      2385010.0000   348502.5445            85.39%
* 10684+ 5968                      2382698.0000   348502.5445            85.37%
* 10715+ 5968                      2381235.0000   348502.5445            85.36%
* 11023+ 5968                      2235291.0000   348502.5445            84.41%
* 11621+ 5968                      1997485.0000   348502.5445            82.55%
* 11897+ 5968                      1981792.0000   348502.5445            82.41%
  11926  7666  1892316.0792   109  1981792.0000   348502.5445    95787   82.41%
Elapsed time = 1.88 sec. (3189.42 ticks, tree = 11.24 MB, solutions = 8)
* 12567+ 5968                      1979842.0000   348502.5445            82.40%
* 12870+ 6074                      1726479.0000   348502.5445            79.81%
* 13555+ 6074                      1637615.0000   348502.5445            78.72%
  14641  9937  2489164.4756    22  1637615.0000   348502.5445   110730   78.72%
  17584 12544  1753781.0738   162  1637615.0000   348502.5445   126106   78.72%
* 18890+ 6022                      1623668.0000   348502.5445            78.54%
* 20454+ 5919                      1621764.0000   348502.5445            78.51%
  20706 15348  2205568.9963    87  1621764.0000   348502.5445   140090   78.51%
* 21367+ 6074                      1619977.0000   348502.5445            78.49%
* 22200+ 6074                      1610783.0000   348502.5445            78.36%
* 22277+ 5919                      1600806.0000   348502.5445            78.23%
* 22339+ 5919                      1600375.0000   348502.5445            78.22%
* 22356+ 5919                      1599168.0000   348502.5445            78.21%
* 22394+ 6022                      1586610.0000   348502.5445            78.03%
* 22401+ 6022                      1579037.0000   348502.5445            77.93%
* 22432+ 6022                      1566350.0000   348502.5445            77.75%
  22432 10792   824088.0682   323  1566350.0000   348502.5445   148096   77.75%
* 22433+ 6022                      1564806.0000   348502.5445            77.73%
* 22433+ 6022                      1558779.0000   348502.5445            77.64%
* 22433+ 6022                      1549253.0000   348502.5445            77.51%
* 22433+ 6022                      1547942.0000   348502.5445            77.49%
* 22433+ 6022                      1538077.0000   348502.5445            77.34%
* 22433+ 6022                      1524886.0000   348502.5445            77.15%
* 22433+ 6022                      1516516.0000   348502.5445            77.02%

Clique cuts applied:  0
Mixed integer rounding cuts applied:  0
Disjunctive cuts applied:  0
Cone linearizations applied:  0

Root node processing (before b&c):
  Real time             =    0.07 sec. (88.53 ticks)
Parallel b&c, 8 threads:
  Real time             =    4.93 sec. (8125.27 ticks)
  Sync time (average)   =    0.92 sec.
  Wait time (average)   =    0.00 sec.
                          ------------
Total (root+branch&cut) =    5.01 sec. (8213.79 ticks)
Gap: 77.02%
Upper bound: 1.51652e+06
Lower bound: 348503
End of CPLEX run. Time: 5.00765 seconds
